benchmark/results/graph__10-1000-0.10-04_16/graph__10-1000-0.10-04_16_Quinton_Benders_primal_sub.lp
\ This file has been generated by DOcplex
\ ENCODING=ISO-8859-1
\Problem name: Quinton Benders_primal_sub

Maximize
 obj: tau
Subject To
 c1: tau <= 0.001992031873
 c2: y_a0_proc_0 + y_a0_proc_1 + y_a0_proc_2 + y_a0_proc_3 - tau = 0
 c3: y_a0_proc_0 <= 0
 c4: y_a0_proc_1 <= 0
 c5: y_a0_proc_2 <= 0
 c6: y_a0_proc_3 <= 1
 c7: tau <= 0.001150747986
 c8: y_a1_proc_0 + y_a1_proc_1 + y_a1_proc_2 - tau = 0
 c9: y_a1_proc_0 <= 1
 c10: y_a1_proc_1 <= 0
 c11: y_a1_proc_2 <= 0
 c12: tau <= 0.001177856302
 c13: y_a2_proc_0 + y_a2_proc_1 + y_a2_proc_2 + y_a2_proc_3 - tau = 0
 c14: y_a2_proc_0 <= 0
 c15: y_a2_proc_1 <= 0
 c16: y_a2_proc_2 <= 0
 c17: y_a2_proc_3 <= 1
 c18: tau <= 0.001203369434
 c19: y_a3_proc_0 + y_a3_proc_1 + y_a3_proc_2 - tau = 0
 c20: y_a3_proc_0 <= 0
 c21: y_a3_proc_1 <= 0
 c22: y_a3_proc_2 <= 1
 c23: tau <= 0.001821493625
 c24: y_a4_proc_0 + y_a4_proc_1 + y_a4_proc_2 + y_a4_proc_3 - tau = 0
 c25: y_a4_proc_0 <= 0
 c26: y_a4_proc_1 <= 1
 c27: y_a4_proc_2 <= 0
 c28: y_a4_proc_3 <= 0
 c29: tau <= 0.001808318264
 c30: y_a5_proc_1 + y_a5_proc_2 + y_a5_proc_3 - tau = 0
 c31: y_a5_proc_1 <= 1
 c32: y_a5_proc_2 <= 0
 c33: y_a5_proc_3 <= 0
 c34: tau <= 0.001210653753
 c35: y_a6_proc_0 + y_a6_proc_1 + y_a6_proc_2 + y_a6_proc_3 - tau = 0
 c36: y_a6_proc_0 <= 1
 c37: y_a6_proc_1 <= 0
 c38: y_a6_proc_2 <= 0
 c39: y_a6_proc_3 <= 0
 c40: tau <= 0.001709401709
 c41: y_a7_proc_0 + y_a7_proc_2 + y_a7_proc_3 - tau = 0
 c42: y_a7_proc_0 <= 1
 c43: y_a7_proc_2 <= 0
 c44: y_a7_proc_3 <= 0
 c45: tau <= 0.003125000000
 c46: y_a8_proc_0 + y_a8_proc_1 + y_a8_proc_2 - tau = 0
 c47: y_a8_proc_0 <= 0
 c48: y_a8_proc_1 <= 0
 c49: y_a8_proc_2 <= 1
 c50: tau <= 0.002487562189
 c51: y_a9_proc_1 + y_a9_proc_2 + y_a9_proc_3 - tau = 0
 c52: y_a9_proc_1 <= 0
 c53: y_a9_proc_2 <= 0
 c54: y_a9_proc_3 <= 1
 c55: u_a1 - u_a0 - 1092 y_a0_proc_0 - 898 y_a0_proc_1 - 1020 y_a0_proc_2
      - 502 y_a0_proc_3 >= -1
 c56: u_a2 - u_a0 - 1092 y_a0_proc_0 - 898 y_a0_proc_1 - 1020 y_a0_proc_2
      - 502 y_a0_proc_3 >= 0
 c57: u_a0 - u_a3 - 919 y_a3_proc_0 - 1228 y_a3_proc_1 - 831 y_a3_proc_2 >= 0
 c58: u_a3 - u_a4 - 1269 y_a4_proc_0 - 549 y_a4_proc_1 - 726 y_a4_proc_2
      - 1199 y_a4_proc_3 >= 0
 c59: u_a5 - u_a2 - 1064 y_a2_proc_0 - 1216 y_a2_proc_1 - 1001 y_a2_proc_2
      - 849 y_a2_proc_3 >= 0
 c60: u_a4 - u_a6 - 826 y_a6_proc_0 - 1016 y_a6_proc_1 - 1123 y_a6_proc_2
      - 1210 y_a6_proc_3 >= -1
 c61: u_a7 - u_a2 - 1064 y_a2_proc_0 - 1216 y_a2_proc_1 - 1001 y_a2_proc_2
      - 849 y_a2_proc_3 >= -1
 c62: u_a1 - u_a8 - 1199 y_a8_proc_0 - 840 y_a8_proc_1 - 320 y_a8_proc_2 >= 0
 c63: u_a4 - u_a9 - 674 y_a9_proc_1 - 1024 y_a9_proc_2 - 402 y_a9_proc_3 >= 0
 c64: u_a0 - u_a2 - 1064 y_a2_proc_0 - 1216 y_a2_proc_1 - 1001 y_a2_proc_2
      - 849 y_a2_proc_3 >= -1
 c65: u_a9 - u_a5 - 553 y_a5_proc_1 - 945 y_a5_proc_2 - 848 y_a5_proc_3 >= -1
 c66: u_a6 - u_a1 - 869 y_a1_proc_0 - 769 y_a1_proc_1 - 843 y_a1_proc_2 >= 0
 c67: u_a6 - u_a4 - 1269 y_a4_proc_0 - 549 y_a4_proc_1 - 726 y_a4_proc_2
      - 1199 y_a4_proc_3 >= 0
 c68: - 553 y_a5_proc_1 - 945 y_a5_proc_2 - 848 y_a5_proc_3 >= -1
 c69: - 1199 y_a8_proc_0 - 840 y_a8_proc_1 - 320 y_a8_proc_2 >= -1
 c70: u_a6 - u_a7 - 585 y_a7_proc_0 - 1150 y_a7_proc_2 - 1214 y_a7_proc_3 >= 0
 c71: u_a8 - u_a9 - 674 y_a9_proc_1 - 1024 y_a9_proc_2 - 402 y_a9_proc_3 >= 0
 c72: u_a1 - u_a0 - 1020 y_a0_proc_2 >= -3808
 c73: u_a1 - u_a0 - 1092 y_a0_proc_0 >= -2539
 c74: u_a1 - u_a0 - 898 y_a0_proc_1 >= -3808
 c75: u_a0 - u_a1 - 843 y_a1_proc_2 >= -1269
 c76: u_a0 - u_a1 - 869 y_a1_proc_0 >= 0
 c77: u_a0 - u_a1 - 769 y_a1_proc_1 >= -1269
 c78: u_a2 - u_a0 - 1020 y_a0_proc_2 >= -2538
 c79: u_a2 - u_a0 - 502 y_a0_proc_3 >= 0
 c80: u_a2 - u_a0 - 1092 y_a0_proc_0 >= -2538
 c81: u_a2 - u_a0 - 898 y_a0_proc_1 >= -2538
 c82: u_a0 - u_a2 - 1001 y_a2_proc_2 >= -2539
 c83: u_a0 - u_a2 - 849 y_a2_proc_3 >= -1
 c84: u_a0 - u_a2 - 1064 y_a2_proc_0 >= -2539
 c85: u_a0 - u_a2 - 1216 y_a2_proc_1 >= -2539
 c86: u_a3 - u_a0 - 1020 y_a0_proc_2 >= -2539
 c87: u_a3 - u_a0 - 1092 y_a0_proc_0 >= -3808
 c88: u_a3 - u_a0 - 898 y_a0_proc_1 >= -3808
 c89: u_a0 - u_a3 - 831 y_a3_proc_2 >= 0
 c90: u_a0 - u_a3 - 919 y_a3_proc_0 >= -1269
 c91: u_a0 - u_a3 - 1228 y_a3_proc_1 >= -1269
 c92: u_a4 - u_a0 - 1020 y_a0_proc_2 >= -3808
 c93: u_a4 - u_a0 - 502 y_a0_proc_3 >= -2539
 c94: u_a4 - u_a0 - 1092 y_a0_proc_0 >= -3808
 c95: u_a4 - u_a0 - 898 y_a0_proc_1 >= -2539
 c96: u_a0 - u_a4 - 726 y_a4_proc_2 >= -1269
 c97: u_a0 - u_a4 - 1199 y_a4_proc_3 >= 0
 c98: u_a0 - u_a4 - 1269 y_a4_proc_0 >= -1269
 c99: u_a0 - u_a4 - 549 y_a4_proc_1 >= 0
 c100: u_a5 - u_a0 - 1020 y_a0_proc_2 >= -3807
 c101: u_a5 - u_a0 - 502 y_a0_proc_3 >= -2538
 c102: u_a5 - u_a0 - 898 y_a0_proc_1 >= -2538
 c103: u_a0 - u_a5 - 945 y_a5_proc_2 >= -1270
 c104: u_a0 - u_a5 - 848 y_a5_proc_3 >= -1
 c105: u_a0 - u_a5 - 553 y_a5_proc_1 >= -1
 c106: u_a6 - u_a0 - 1020 y_a0_proc_2 >= -3807
 c107: u_a6 - u_a0 - 502 y_a0_proc_3 >= -2538
 c108: u_a6 - u_a0 - 1092 y_a0_proc_0 >= -2538
 c109: u_a6 - u_a0 - 898 y_a0_proc_1 >= -3807
 c110: u_a0 - u_a6 - 1123 y_a6_proc_2 >= -1270
 c111: u_a0 - u_a6 - 1210 y_a6_proc_3 >= -1
 c112: u_a0 - u_a6 - 826 y_a6_proc_0 >= -1
 c113: u_a0 - u_a6 - 1016 y_a6_proc_1 >= -1270
 c114: u_a7 - u_a0 - 1020 y_a0_proc_2 >= -3807
 c115: u_a7 - u_a0 - 502 y_a0_proc_3 >= -2538
 c116: u_a7 - u_a0 - 1092 y_a0_proc_0 >= -2538
 c117: u_a0 - u_a7 - 1150 y_a7_proc_2 >= -1270
 c118: u_a0 - u_a7 - 1214 y_a7_proc_3 >= -1
 c119: u_a0 - u_a7 - 585 y_a7_proc_0 >= -1
 c120: u_a8 - u_a0 - 1020 y_a0_proc_2 >= -2539
 c121: u_a8 - u_a0 - 1092 y_a0_proc_0 >= -3808
 c122: u_a8 - u_a0 - 898 y_a0_proc_1 >= -3808
 c123: u_a0 - u_a8 - 320 y_a8_proc_2 >= 0
 c124: u_a0 - u_a8 - 1199 y_a8_proc_0 >= -1269
 c125: u_a0 - u_a8 - 840 y_a8_proc_1 >= -1269
 c126: u_a9 - u_a0 - 1020 y_a0_proc_2 >= -2539
 c127: u_a9 - u_a0 - 502 y_a0_proc_3 >= -1
 c128: u_a9 - u_a0 - 898 y_a0_proc_1 >= -2539
 c129: u_a0 - u_a9 - 1024 y_a9_proc_2 >= -2538
 c130: u_a0 - u_a9 - 402 y_a9_proc_3 >= 0
 c131: u_a0 - u_a9 - 674 y_a9_proc_1 >= -2538
 c132: u_a2 - u_a1 - 843 y_a1_proc_2 >= -3807
 c133: u_a2 - u_a1 - 869 y_a1_proc_0 >= -2538
 c134: u_a2 - u_a1 - 769 y_a1_proc_1 >= -3807
 c135: u_a1 - u_a2 - 1001 y_a2_proc_2 >= -1270
 c136: u_a1 - u_a2 - 1064 y_a2_proc_0 >= -1
 c137: u_a1 - u_a2 - 1216 y_a2_proc_1 >= -1270
 c138: u_a3 - u_a1 - 843 y_a1_proc_2 >= -102
 c139: u_a3 - u_a1 - 869 y_a1_proc_0 >= -102
 c140: u_a3 - u_a1 - 769 y_a1_proc_1 >= -1371
 c141: u_a1 - u_a3 - 831 y_a3_proc_2 >= -2437
 c142: u_a1 - u_a3 - 919 y_a3_proc_0 >= -2437
 c143: u_a1 - u_a3 - 1228 y_a3_proc_1 >= -3706
 c144: u_a4 - u_a1 - 843 y_a1_proc_2 >= -3807
 c145: u_a4 - u_a1 - 869 y_a1_proc_0 >= -2538
 c146: u_a4 - u_a1 - 769 y_a1_proc_1 >= -2538
 c147: u_a1 - u_a4 - 726 y_a4_proc_2 >= -1270
 c148: u_a1 - u_a4 - 1269 y_a4_proc_0 >= -1
 c149: u_a1 - u_a4 - 549 y_a4_proc_1 >= -1
 c150: u_a5 - u_a1 - 843 y_a1_proc_2 >= -3807
 c151: u_a5 - u_a1 - 769 y_a1_proc_1 >= -2538
 c152: u_a1 - u_a5 - 945 y_a5_proc_2 >= -1270
 c153: u_a1 - u_a5 - 553 y_a5_proc_1 >= -1
 c154: u_a6 - u_a1 - 843 y_a1_proc_2 >= -2538
 c155: u_a6 - u_a1 - 869 y_a1_proc_0 >= 0
 c156: u_a6 - u_a1 - 769 y_a1_proc_1 >= -2538
 c157: u_a1 - u_a6 - 1123 y_a6_proc_2 >= -2539
 c158: u_a1 - u_a6 - 826 y_a6_proc_0 >= -1
 c159: u_a1 - u_a6 - 1016 y_a6_proc_1 >= -2539
 c160: u_a7 - u_a1 - 843 y_a1_proc_2 >= -2538
 c161: u_a7 - u_a1 - 869 y_a1_proc_0 >= 0
 c162: u_a1 - u_a7 - 1150 y_a7_proc_2 >= -2539
 c163: u_a1 - u_a7 - 585 y_a7_proc_0 >= -1
 c164: u_a8 - u_a1 - 843 y_a1_proc_2 >= -2538
 c165: u_a8 - u_a1 - 869 y_a1_proc_0 >= -2538
 c166: u_a8 - u_a1 - 769 y_a1_proc_1 >= -3807
 c167: u_a1 - u_a8 - 320 y_a8_proc_2 >= -1
 c168: u_a1 - u_a8 - 1199 y_a8_proc_0 >= -1
 c169: u_a1 - u_a8 - 840 y_a8_proc_1 >= -1270
 c170: u_a9 - u_a1 - 843 y_a1_proc_2 >= -5047
 c171: u_a9 - u_a1 - 769 y_a1_proc_1 >= -5047
 c172: u_a1 - u_a9 - 1024 y_a9_proc_2 >= -30
 c173: u_a1 - u_a9 - 674 y_a9_proc_1 >= -30
 c174: u_a3 - u_a2 - 1001 y_a2_proc_2 >= -2539
 c175: u_a3 - u_a2 - 1064 y_a2_proc_0 >= -3808
 c176: u_a3 - u_a2 - 1216 y_a2_proc_1 >= -3808
 c177: u_a2 - u_a3 - 831 y_a3_proc_2 >= 0
 c178: u_a2 - u_a3 - 919 y_a3_proc_0 >= -1269
 c179: u_a2 - u_a3 - 1228 y_a3_proc_1 >= -1269
 c180: u_a4 - u_a2 - 1001 y_a2_proc_2 >= -3808
 c181: u_a4 - u_a2 - 849 y_a2_proc_3 >= -2539
 c182: u_a4 - u_a2 - 1064 y_a2_proc_0 >= -3808
 c183: u_a4 - u_a2 - 1216 y_a2_proc_1 >= -2539
 c184: u_a2 - u_a4 - 726 y_a4_proc_2 >= -1269
 c185: u_a2 - u_a4 - 1199 y_a4_proc_3 >= 0
 c186: u_a2 - u_a4 - 1269 y_a4_proc_0 >= -1269
 c187: u_a2 - u_a4 - 549 y_a4_proc_1 >= 0
 c188: u_a5 - u_a2 - 1001 y_a2_proc_2 >= -3807
 c189: u_a5 - u_a2 - 849 y_a2_proc_3 >= -2538
 c190: u_a5 - u_a2 - 1216 y_a2_proc_1 >= -2538
 c191: u_a2 - u_a5 - 945 y_a5_proc_2 >= -1270
 c192: u_a2 - u_a5 - 848 y_a5_proc_3 >= -1
 c193: u_a2 - u_a5 - 553 y_a5_proc_1 >= -1
 c194: u_a6 - u_a2 - 1001 y_a2_proc_2 >= -3807
 c195: u_a6 - u_a2 - 849 y_a2_proc_3 >= -2538
 c196: u_a6 - u_a2 - 1064 y_a2_proc_0 >= -2538
 c197: u_a6 - u_a2 - 1216 y_a2_proc_1 >= -3807
 c198: u_a2 - u_a6 - 1123 y_a6_proc_2 >= -1270
 c199: u_a2 - u_a6 - 1210 y_a6_proc_3 >= -1
 c200: u_a2 - u_a6 - 826 y_a6_proc_0 >= -1
 c201: u_a2 - u_a6 - 1016 y_a6_proc_1 >= -1270
 c202: u_a7 - u_a2 - 1001 y_a2_proc_2 >= -1386
 c203: u_a7 - u_a2 - 849 y_a2_proc_3 >= -117
 c204: u_a7 - u_a2 - 1064 y_a2_proc_0 >= -117
 c205: u_a2 - u_a7 - 1150 y_a7_proc_2 >= -3691
 c206: u_a2 - u_a7 - 1214 y_a7_proc_3 >= -2422
 c207: u_a2 - u_a7 - 585 y_a7_proc_0 >= -2422
 c208: u_a8 - u_a2 - 1001 y_a2_proc_2 >= -2539
 c209: u_a8 - u_a2 - 1064 y_a2_proc_0 >= -3808
 c210: u_a8 - u_a2 - 1216 y_a2_proc_1 >= -3808
 c211: u_a2 - u_a8 - 320 y_a8_proc_2 >= 0
 c212: u_a2 - u_a8 - 1199 y_a8_proc_0 >= -1269
 c213: u_a2 - u_a8 - 840 y_a8_proc_1 >= -1269
 c214: u_a9 - u_a2 - 1001 y_a2_proc_2 >= -2539
 c215: u_a9 - u_a2 - 849 y_a2_proc_3 >= -1
 c216: u_a9 - u_a2 - 1216 y_a2_proc_1 >= -2539
 c217: u_a2 - u_a9 - 1024 y_a9_proc_2 >= -2538
 c218: u_a2 - u_a9 - 402 y_a9_proc_3 >= 0
 c219: u_a2 - u_a9 - 674 y_a9_proc_1 >= -2538
 c220: u_a4 - u_a3 - 831 y_a3_proc_2 >= -2538
 c221: u_a4 - u_a3 - 919 y_a3_proc_0 >= -3807
 c222: u_a4 - u_a3 - 1228 y_a3_proc_1 >= -2538
 c223: u_a3 - u_a4 - 726 y_a4_proc_2 >= -1
 c224: u_a3 - u_a4 - 1269 y_a4_proc_0 >= -1270
 c225: u_a3 - u_a4 - 549 y_a4_proc_1 >= -1
 c226: u_a5 - u_a3 - 831 y_a3_proc_2 >= -2538
 c227: u_a5 - u_a3 - 1228 y_a3_proc_1 >= -2538
 c228: u_a3 - u_a5 - 945 y_a5_proc_2 >= -1
 c229: u_a3 - u_a5 - 553 y_a5_proc_1 >= -1
 c230: u_a6 - u_a3 - 831 y_a3_proc_2 >= -2538
 c231: u_a6 - u_a3 - 919 y_a3_proc_0 >= -2538
 c232: u_a6 - u_a3 - 1228 y_a3_proc_1 >= -3807
 c233: u_a3 - u_a6 - 1123 y_a6_proc_2 >= -1
 c234: u_a3 - u_a6 - 826 y_a6_proc_0 >= -1
 c235: u_a3 - u_a6 - 1016 y_a6_proc_1 >= -1270
 c236: u_a7 - u_a3 - 831 y_a3_proc_2 >= -1
 c237: u_a7 - u_a3 - 919 y_a3_proc_0 >= -1
 c238: u_a3 - u_a7 - 1150 y_a7_proc_2 >= -2538
 c239: u_a3 - u_a7 - 585 y_a7_proc_0 >= -2538
 c240: u_a8 - u_a3 - 831 y_a3_proc_2 >= -1
 c241: u_a8 - u_a3 - 919 y_a3_proc_0 >= -2539
 c242: u_a8 - u_a3 - 1228 y_a3_proc_1 >= -2539
 c243: u_a3 - u_a8 - 320 y_a8_proc_2 >= 0
 c244: u_a3 - u_a8 - 1199 y_a8_proc_0 >= -2538
 c245: u_a3 - u_a8 - 840 y_a8_proc_1 >= -2538
 c246: u_a9 - u_a3 - 831 y_a3_proc_2 >= -2538
 c247: u_a9 - u_a3 - 1228 y_a3_proc_1 >= -3807
 c248: u_a3 - u_a9 - 1024 y_a9_proc_2 >= -1
 c249: u_a3 - u_a9 - 674 y_a9_proc_1 >= -1270
 c250: u_a5 - u_a4 - 726 y_a4_proc_2 >= -2538
 c251: u_a5 - u_a4 - 1199 y_a4_proc_3 >= -2538
 c252: u_a5 - u_a4 - 549 y_a4_proc_1 >= 0
 c253: u_a4 - u_a5 - 945 y_a5_proc_2 >= -2539
 c254: u_a4 - u_a5 - 848 y_a5_proc_3 >= -2539
 c255: u_a4 - u_a5 - 553 y_a5_proc_1 >= -1
 c256: u_a6 - u_a4 - 726 y_a4_proc_2 >= -3807
 c257: u_a6 - u_a4 - 1199 y_a4_proc_3 >= -3807
 c258: u_a6 - u_a4 - 1269 y_a4_proc_0 >= -2538
 c259: u_a6 - u_a4 - 549 y_a4_proc_1 >= -2538
 c260: u_a4 - u_a6 - 1123 y_a6_proc_2 >= -1270
 c261: u_a4 - u_a6 - 1210 y_a6_proc_3 >= -1270
 c262: u_a4 - u_a6 - 826 y_a6_proc_0 >= -1
 c263: u_a4 - u_a6 - 1016 y_a6_proc_1 >= -1
 c264: u_a7 - u_a4 - 726 y_a4_proc_2 >= -3807
 c265: u_a7 - u_a4 - 1199 y_a4_proc_3 >= -3807
 c266: u_a7 - u_a4 - 1269 y_a4_proc_0 >= -2538
 c267: u_a4 - u_a7 - 1150 y_a7_proc_2 >= -1270
 c268: u_a4 - u_a7 - 1214 y_a7_proc_3 >= -1270
 c269: u_a4 - u_a7 - 585 y_a7_proc_0 >= -1
 c270: u_a8 - u_a4 - 726 y_a4_proc_2 >= -2538
 c271: u_a8 - u_a4 - 1269 y_a4_proc_0 >= -3807
 c272: u_a8 - u_a4 - 549 y_a4_proc_1 >= -2538
 c273: u_a4 - u_a8 - 320 y_a8_proc_2 >= -1
 c274: u_a4 - u_a8 - 1199 y_a8_proc_0 >= -1270
 c275: u_a4 - u_a8 - 840 y_a8_proc_1 >= -1
 c276: u_a9 - u_a4 - 726 y_a4_proc_2 >= -3807
 c277: u_a9 - u_a4 - 1199 y_a4_proc_3 >= -2538
 c278: u_a9 - u_a4 - 549 y_a4_proc_1 >= -2538
 c279: u_a4 - u_a9 - 1024 y_a9_proc_2 >= -1270
 c280: u_a4 - u_a9 - 402 y_a9_proc_3 >= -1
 c281: u_a4 - u_a9 - 674 y_a9_proc_1 >= -1
 c282: u_a6 - u_a5 - 945 y_a5_proc_2 >= -3689
 c283: u_a6 - u_a5 - 848 y_a5_proc_3 >= -3689
 c284: u_a6 - u_a5 - 553 y_a5_proc_1 >= -2420
 c285: u_a5 - u_a6 - 1123 y_a6_proc_2 >= -1388
 c286: u_a5 - u_a6 - 1210 y_a6_proc_3 >= -1388
 c287: u_a5 - u_a6 - 1016 y_a6_proc_1 >= -119
 c288: u_a7 - u_a5 - 945 y_a5_proc_2 >= -5077
 c289: u_a7 - u_a5 - 848 y_a5_proc_3 >= -5077
 c290: u_a5 - u_a7 - 1150 y_a7_proc_2 >= 0
 c291: u_a5 - u_a7 - 1214 y_a7_proc_3 >= 0
 c292: u_a8 - u_a5 - 945 y_a5_proc_2 >= -1
 c293: u_a8 - u_a5 - 553 y_a5_proc_1 >= -1
 c294: u_a5 - u_a8 - 320 y_a8_proc_2 >= -2538
 c295: u_a5 - u_a8 - 840 y_a8_proc_1 >= -2538
 c296: u_a9 - u_a5 - 945 y_a5_proc_2 >= -3808
 c297: u_a9 - u_a5 - 848 y_a5_proc_3 >= -2539
 c298: u_a9 - u_a5 - 553 y_a5_proc_1 >= -2539
 c299: u_a5 - u_a9 - 1024 y_a9_proc_2 >= -1269
 c300: u_a5 - u_a9 - 402 y_a9_proc_3 >= 0
 c301: u_a5 - u_a9 - 674 y_a9_proc_1 >= 0
 c302: u_a7 - u_a6 - 1123 y_a6_proc_2 >= -2539
 c303: u_a7 - u_a6 - 1210 y_a6_proc_3 >= -2539
 c304: u_a7 - u_a6 - 826 y_a6_proc_0 >= -1
 c305: u_a6 - u_a7 - 1150 y_a7_proc_2 >= -2538
 c306: u_a6 - u_a7 - 1214 y_a7_proc_3 >= -2538
 c307: u_a6 - u_a7 - 585 y_a7_proc_0 >= 0
 c308: u_a8 - u_a6 - 1123 y_a6_proc_2 >= -2539
 c309: u_a8 - u_a6 - 826 y_a6_proc_0 >= -2539
 c310: u_a8 - u_a6 - 1016 y_a6_proc_1 >= -3808
 c311: u_a6 - u_a8 - 320 y_a8_proc_2 >= 0
 c312: u_a6 - u_a8 - 1199 y_a8_proc_0 >= 0
 c313: u_a6 - u_a8 - 840 y_a8_proc_1 >= -1269
 c314: u_a9 - u_a6 - 1123 y_a6_proc_2 >= -1270
 c315: u_a9 - u_a6 - 1210 y_a6_proc_3 >= -1
 c316: u_a9 - u_a6 - 1016 y_a6_proc_1 >= -1270
 c317: u_a6 - u_a9 - 1024 y_a9_proc_2 >= -3807
 c318: u_a6 - u_a9 - 402 y_a9_proc_3 >= -2538
 c319: u_a6 - u_a9 - 674 y_a9_proc_1 >= -3807
 c320: u_a8 - u_a7 - 1150 y_a7_proc_2 >= -2538
 c321: u_a8 - u_a7 - 585 y_a7_proc_0 >= -2538
 c322: u_a7 - u_a8 - 320 y_a8_proc_2 >= -1
 c323: u_a7 - u_a8 - 1199 y_a8_proc_0 >= -1
 c324: u_a9 - u_a7 - 1150 y_a7_proc_2 >= -3808
 c325: u_a9 - u_a7 - 1214 y_a7_proc_3 >= -2539
 c326: u_a7 - u_a9 - 1024 y_a9_proc_2 >= -1269
 c327: u_a7 - u_a9 - 402 y_a9_proc_3 >= 0
 c328: u_a9 - u_a8 - 320 y_a8_proc_2 >= -2538
 c329: u_a9 - u_a8 - 840 y_a8_proc_1 >= -3807
 c330: u_a8 - u_a9 - 1024 y_a9_proc_2 >= -1
 c331: u_a8 - u_a9 - 674 y_a9_proc_1 >= -1270

Bounds
End
